







































































































46 14 7 25 37 1 26 
33 45 67 24 31 40 65 60 
49 51 10 54 42 11 73 
72 44 30 59 41 53 32 
21 34 55 0 63 39 68 
74 48 20 13 62 66 5 
71 16 22 43 75 23 57 
36 29 2 76 28 58 64 17 
3 50 9 8 47 38 
19 27 52 61 6 15 69 
70 56 4 12 18 35 
